
Gurobi 11.0.3 (linux64) logging started Mon Aug 25 15:03:44 2025

Set parameter LogFile to value "/home/yihong/Coding/OR_SUC/SUC_epstheta_results_bigM100000_thread4/case24_ieee_rts_theta0.1_epsilon0.1_gurobi_seed160000_num_gen100_N_WDR50_load_scaling_factor1_proposed_theta_T6quadra_cost_bc1.05.txt"
Set parameter TimeLimit to value 3600
Gurobi Optimizer version 11.0.3 build v11.0.3rc0 (linux64 - "Ubuntu 20.04.6 LTS")

CPU model: AMD EPYC 7532 32-Core Processor, instruction set [SSE2|AVX|AVX2]
Thread count: 64 physical cores, 128 logical processors, using up to 4 threads

Academic license 2399124 - for non-commercial use only - registered to yi___@ed.ac.uk
Optimize a model with 13966 rows, 7491 columns and 327526 nonzeros
Model fingerprint: 0xb83fbff1
Model has 600 quadratic constraints
Variable types: 6891 continuous, 600 integer (600 binary)
Coefficient statistics:
  Matrix range     [3e-04, 3e+03]
  QMatrix range    [2e-03, 8e-03]
  QLMatrix range   [9e-02, 6e+01]
  Objective range  [1e+00, 1e+00]
  Bounds range     [1e+00, 1e+00]
  RHS range        [1e+00, 8e+03]
Presolve removed 11655 rows and 3378 columns
Presolve time: 0.09s
Presolved: 2311 rows, 4113 columns, 14267 nonzeros
Presolved model has 600 quadratic constraint(s)
Variable types: 3513 continuous, 600 integer (600 binary)

Root relaxation: objective 6.558849e+03, 1678 iterations, 0.03 seconds (0.03 work units)

    Nodes    |    Current Node    |     Objective Bounds      |     Work
 Expl Unexpl |  Obj  Depth IntInf | Incumbent    BestBd   Gap | It/Node Time

H    0     0                    108678.00286 6558.84853  94.0%     -    0s
*    0     0               0    108678.00286 6558.84853  94.0%     -    0s
     0     0 7583.67927    0  288 108678.003 7583.67927  93.0%     -    0s
     0     0 76060.0804    0    6 108678.003 76060.0804  30.0%     -    0s
     0     0 92002.3576    0   18 108678.003 92002.3576  15.3%     -    0s
     0     0 92015.2269    0   12 108678.003 92015.2269  15.3%     -    0s
     0     0 92016.0167    0   12 108678.003 92016.0167  15.3%     -    0s
     0     0 92016.0167    0   12 108678.003 92016.0167  15.3%     -    0s
     0     0 92016.0481    0   12 108678.003 92016.0481  15.3%     -    0s
     0     2 92016.0481    0   12 108678.003 92016.0481  15.3%     -    0s
H  175   194                    92030.900900 92027.6986  0.00%  12.8    2s
*  175   194              35    92030.900900 92027.6986  0.00%  12.9    2s

Cutting planes:
  Gomory: 68
  Lift-and-project: 4
  Implied bound: 101
  MIR: 9
  Flow cover: 88
  RLT: 52
  Relax-and-lift: 42

Explored 200 nodes (8140 simplex iterations) in 2.32 seconds (2.69 work units)
Thread count was 4 (of 128 available processors)

Solution count 3: 92030.9 92030.9 108678 

Optimal solution found (tolerance 1.00e-03)
Warning: max constraint violation (3.3944e-08) exceeds tolerance
Best objective 9.203090090046e+04, best bound 9.202769858297e+04, gap 0.0035%

Gurobi 11.0.3 (linux64) logging started Mon Aug 25 15:03:47 2025

Set parameter LogFile to value "/home/yihong/Coding/OR_SUC/SUC_epstheta_results_bigM100000_thread4/case24_ieee_rts_theta0.1_epsilon0.1_gurobi_seed160000_num_gen100_N_WDR50_load_scaling_factor1_proposed_theta_T6quadra_cost_bc1.05.txt"
Set parameter TimeLimit to value 3600
Gurobi Optimizer version 11.0.3 build v11.0.3rc0 (linux64 - "Ubuntu 20.04.6 LTS")

CPU model: AMD EPYC 7532 32-Core Processor, instruction set [SSE2|AVX|AVX2]
Thread count: 64 physical cores, 128 logical processors, using up to 4 threads

Academic license 2399124 - for non-commercial use only - registered to yi___@ed.ac.uk
Optimize a model with 13967 rows, 7492 columns and 329387 nonzeros
Model fingerprint: 0xc313f415
Model has 600 quadratic constraints
Variable types: 6892 continuous, 600 integer (600 binary)
Coefficient statistics:
  Matrix range     [3e-04, 3e+03]
  QMatrix range    [2e-03, 8e-03]
  QLMatrix range   [9e-02, 6e+01]
  Objective range  [1e+00, 1e+00]
  Bounds range     [1e-01, 1e+00]
  RHS range        [1e+00, 1e+05]
Presolve removed 10663 rows and 2883 columns
Presolve time: 0.14s
Presolved: 3304 rows, 4609 columns, 18574 nonzeros
Presolved model has 600 quadratic constraint(s)
Variable types: 4007 continuous, 602 integer (602 binary)

Root relaxation: objective 8.869939e+00, 5715 iterations, 0.25 seconds (0.26 work units)

    Nodes    |    Current Node    |     Objective Bounds      |     Work
 Expl Unexpl |  Obj  Depth IntInf | Incumbent    BestBd   Gap | It/Node Time

     0     0    8.86994    0   44          -    8.86994      -     -    0s
     0     0    7.30009    0   30          -    7.30009      -     -    0s
     0     0    0.77988    0    6          -    0.77988      -     -    1s
     0     0    0.77218    0    6          -    0.77218      -     -    1s
     0     0    0.77149    0    6          -    0.77149      -     -    1s
     0     0    0.77149    0    6          -    0.77149      -     -    1s
     0     0    0.77146    0    6          -    0.77146      -     -    1s
H    0     0                       0.7449413    0.77146  3.56%     -    1s
H    0     0                       0.7582171    0.77146  1.75%     -    1s
     0     2    0.77146    0    6    0.75822    0.77146  1.75%     -    1s
H   30    34                       0.7651884    0.77040  0.68%  23.3    1s
H  141     3                       0.7661985    0.76657  0.05%  19.4    2s
*  141     3               6       0.7661985    0.76657  0.05%  20.2    2s

Cutting planes:
  Gomory: 4
  Implied bound: 44
  Flow cover: 1
  RLT: 14

Explored 147 nodes (12844 simplex iterations) in 2.28 seconds (2.78 work units)
Thread count was 4 (of 128 available processors)

Solution count 4: 0.766199 0.765188 0.758217 0.744941 

Optimal solution found (tolerance 1.00e-03)
Warning: max constraint violation (7.1938e-09) exceeds tolerance
Best objective 7.661985199329e-01, best bound 7.665681806269e-01, gap 0.0482%
